
--- Job Doptimal_MINLP.gms Start 04/02/19 17:55:47 25.1.3 r4e34d435fbd WEX-WEI x86 64bit/MS Windows
GAMS 25.1.3   Copyright (C) 1987-2018 GAMS Development. All rights reserved
Licensee: GAMS Development Corporation, USA              G871201/0000CA-ANY
          Free Demo, +1 202-342-0180, support@gams.com, www.gams.com DC0000
--- Starting compilation
--- Doptimal_MINLP.gms(142) 3 Mb
--- GDXin=C:\Users\AVazquezAlcocer.AD\Dropbox\SDP for Constructing Designs\MINL_PROBLEMS\Mixture\First-Order\Scenario331\in.gdx
--- Doptimal_MINLP.gms(190) 3 Mb
--- Starting execution: elapsed 0:00:00.026
--- Doptimal_MINLP.gms(174) 4 Mb
--- Generating MINLP model D_opt
--- Doptimal_MINLP.gms(185) 6 Mb
---   119 rows  152 columns  832 non-zeroes
---   1,138 nl-code  603 nl-non-zeroes
---   19 discrete-columns
--- Doptimal_MINLP.gms(185) 4 Mb
--- Executing SBB: elapsed 0:00:00.044

Simple B&B       25.1.3 r4e34d435fbd Released Oct 30, 2018 WEI x86 64bit/MS Wi

*** Error Cannot open parameter file "C:\Users\AVazquezAlcocer.AD\Dropbox\SDP for Constructing Designs\MINL_PROBLEMS\Mixture\First-Order\Scenario331\sbb.opt"
*** Error Error code = 2; No such file or directory
 152 columns (19 discrete), 119 rows, 832 nonzeros

COIN-OR Ipopt    25.1.3 r4e34d435fbd Released Oct 30, 2018 WEI x86 64bit/MS Wi

COIN-OR Interior Point Optimizer (Ipopt Library 3.12)
written by A. Waechter.

******************************************************************************
This program contains Ipopt, a library for large-scale nonlinear optimization.
 Ipopt is released as open source code under the Eclipse Public License (EPL).
         For more information visit http://projects.coin-or.org/Ipopt
******************************************************************************

This is Ipopt version 3.12, running with linear solver mumps.

Number of nonzeros in equality constraint Jacobian...:      676
Number of nonzeros in inequality constraint Jacobian.:      156
Number of nonzeros in Lagrangian Hessian.............:      246

Total number of variables............................:      152
                     variables with only lower bounds:        0
                variables with lower and upper bounds:      152
                     variables with only upper bounds:        0
Total number of equality constraints.................:       95
Total number of inequality constraints...............:       24
        inequality constraints with only lower bounds:       21
   inequality constraints with lower and upper bounds:        0
        inequality constraints with only upper bounds:        3

iter    objective    inf_pr   inf_du lg(mu)  ||d||  lg(rg) alpha_du alpha_pr  ls
   0  0.0000000e+00 3.51e+00 7.52e-01   0.0 0.00e+00    -  0.00e+00 0.00e+00   0
   1 -4.4805585e+00 7.84e-01 9.11e+00  -0.9 4.99e+00    -  1.14e-01 8.98e-01f  1
   2 -5.0463612e+00 2.65e-01 3.42e+01  -0.8 2.03e+00    -  3.05e-01 6.78e-01f  1
   3 -6.0582493e+00 3.38e-01 1.23e+03  -1.2 1.01e+00   2.0 9.74e-01 1.00e+00h  1
   4 -6.2591502e+00 1.76e-01 3.22e+03  -0.8 4.06e-01   3.3 1.00e+00 4.95e-01h  1
   5 -6.2865977e+00 1.14e-01 2.08e+03  -0.5 2.32e-01   3.8 1.00e+00 3.56e-01h  1
   6 -6.3010166e+00 2.49e-03 8.54e+02  -0.8 1.99e-02   4.2 1.00e+00 1.00e+00f  1
   7 -6.3011850e+00 6.77e-06 3.24e+01  -1.5 2.94e-04   3.7 1.00e+00 1.00e+00h  1
   8 -6.3006485e+00 7.25e-08 9.04e-01  -3.4 5.37e-04   3.2 1.00e+00 1.00e+00h  1
   9 -6.2990149e+00 6.61e-07 9.18e-01  -5.3 1.63e-03   2.7 1.00e+00 1.00e+00f  1
iter    objective    inf_pr   inf_du lg(mu)  ||d||  lg(rg) alpha_du alpha_pr  ls
  10 -6.2941142e+00 5.95e-06 9.18e-01  -7.0 4.90e-03   2.3 1.00e+00 1.00e+00f  1
  11 -6.2794247e+00 5.33e-05 9.17e-01  -8.6 1.47e-02   1.8 1.00e+00 1.00e+00f  1
  12 -6.2354704e+00 4.73e-04 9.15e-01 -10.1 4.40e-02   1.3 1.00e+00 1.00e+00f  1
  13 -6.1985673e+00 6.75e-04 9.13e-01  -7.8 1.31e-01   0.8 1.00e+00 2.82e-01f  1
  14 -6.1307787e+00 1.67e-03 9.09e-01  -6.2 3.86e-01   0.4 1.00e+00 1.76e-01f  1
  15 -6.0909768e+00 1.61e-03 9.05e-01  -6.0 1.45e-01   0.8 1.00e+00 2.74e-01f  1
  16 -6.0178258e+00 2.62e-03 8.99e-01  -4.5 4.24e-01   0.3 1.00e+00 1.73e-01f  1
  17 -5.8595327e+00 6.11e-03 8.75e-01  -4.6 1.60e-01   0.7 1.00e+00 9.91e-01f  1
  18 -5.8022512e+00 6.16e-03 8.71e-01  -4.9 4.58e-01   0.3 1.00e+00 1.25e-01f  1
  19 -5.7632509e+00 4.88e-03 8.06e-01  -3.9 1.34e-01   0.7 1.00e+00 2.92e-01h  1
iter    objective    inf_pr   inf_du lg(mu)  ||d||  lg(rg) alpha_du alpha_pr  ls
  20 -5.6003207e+00 9.82e-03 7.44e-01  -4.1 4.02e-01   0.2 1.00e+00 4.06e-01f  1
  21 -5.5200414e+00 6.37e-03 7.02e-01  -4.5 1.53e-01   0.6 1.00e+00 5.24e-01h  1
  22 -5.3096493e+00 1.42e-02 7.03e-01  -4.6 4.88e-01   0.2 1.00e+00 4.31e-01f  1
  23 -5.2111830e+00 9.72e-03 6.79e-01  -3.5 1.72e-01   0.6 1.00e+00 5.74e-01f  1
  24 -4.9024391e+00 2.63e-02 6.50e-01  -3.6 4.93e-01   0.1 1.00e+00 6.27e-01f  1
  25 -4.7674835e+00 8.56e-03 5.41e-01  -3.4 1.54e-01   0.5 1.00e+00 8.78e-01h  1
  26 -4.7398427e+00 8.19e-03 5.37e-01  -3.6 4.28e-01   0.1 1.00e+00 6.45e-02f  1
  27 -4.6537825e+00 5.41e-03 4.91e-01  -4.8 1.50e-01   0.5 1.00e+00 5.73e-01f  1
  28 -4.4780475e+00 1.05e-02 4.55e-01  -4.3 4.02e-01   0.0 1.00e+00 4.37e-01f  1
  29 -4.4305034e+00 7.85e-03 4.44e-01  -5.0 1.55e-01   0.4 1.00e+00 3.07e-01h  1
iter    objective    inf_pr   inf_du lg(mu)  ||d||  lg(rg) alpha_du alpha_pr  ls
  30 -4.2875554e+00 9.66e-03 4.22e-01  -4.5 4.22e-01  -0.0 1.00e+00 3.38e-01f  1
  31 -4.2490356e+00 7.61e-03 4.10e-01  -4.5 1.55e-01   0.4 1.00e+00 2.49e-01h  1
  32 -4.1133044e+00 8.93e-03 3.77e-01  -4.2 3.92e-01  -0.1 1.00e+00 3.46e-01f  1
  33 -4.1110536e+00 8.78e-03 3.75e-01  -4.6 1.37e-01   0.3 1.00e+00 1.65e-02h  1
  34 -4.0698377e+00 8.03e-03 4.51e-01  -5.0 3.13e-01  -0.1 1.00e+00 1.32e-01h  1
  35 -4.0051140e+00 1.71e-03 1.46e-01  -3.8 7.03e-02   0.3 1.00e+00 9.35e-01h  1
  36 -3.9765271e+00 1.64e-03 1.72e-01  -3.8 2.04e-01  -0.2 1.00e+00 1.50e-01f  1
  37 -3.9614002e+00 1.27e-03 1.36e-01  -4.7 5.84e-02   0.2 1.00e+00 2.59e-01h  1
  38 -3.9125702e+00 1.48e-03 1.52e-01  -4.2 3.15e-01  -0.2 1.00e+00 2.51e-01f  1
  39 -3.8960978e+00 1.12e-03 1.49e-01  -3.9 7.10e-02   0.2 1.00e+00 2.91e-01h  1
iter    objective    inf_pr   inf_du lg(mu)  ||d||  lg(rg) alpha_du alpha_pr  ls
  40 -3.8750902e+00 1.10e-03 2.96e-01  -3.4 4.48e-01  -0.3 1.00e+00 8.72e-02f  1
  41 -3.8519808e+00 1.83e-04 6.42e-02  -3.7 4.77e-02   0.1 1.00e+00 9.36e-01h  1
  42 -3.8380208e+00 3.61e-05 6.00e-02  -4.8 1.69e-02   0.6 1.00e+00 1.00e+00h  1
  43 -3.8254494e+00 4.85e-05 6.30e-02  -5.8 5.62e-02   0.1 1.00e+00 4.63e-01f  1
  44 -3.8214606e+00 3.32e-05 6.34e-02  -6.0 2.02e-02   0.5 1.00e+00 3.78e-01h  1
  45 -3.7934498e+00 1.51e-04 6.45e-02  -5.9 6.14e-02   0.0 1.00e+00 8.76e-01f  1
  46 -3.7930688e+00 1.47e-04 6.45e-02  -5.6 2.40e-02   0.4 1.00e+00 2.45e-02h  1
  47 -3.7893720e+00 1.28e-04 1.72e-01  -5.0 5.83e-02  -0.0 1.00e+00 1.43e-01h  1
  48 -3.7796157e+00 1.71e-05 5.22e-02  -5.7 2.09e-02   0.4 1.00e+00 1.00e+00h  1
  49 -3.7711083e+00 2.49e-05 5.24e-02  -6.4 6.37e-02  -0.1 1.00e+00 2.76e-01h  1
iter    objective    inf_pr   inf_du lg(mu)  ||d||  lg(rg) alpha_du alpha_pr  ls
  50 -3.7619147e+00 2.38e-05 5.73e-02  -4.8 2.58e-02   0.3 1.00e+00 1.00e+00h  1
  51 -3.7369971e+00 1.58e-04 5.75e-02  -5.3 8.72e-02  -0.1 1.00e+00 6.01e-01f  1
  52 -3.7247816e+00 7.86e-05 6.01e-02  -4.7 3.16e-02   0.3 1.00e+00 6.15e-01h  1
  53 -3.7241158e+00 7.78e-05 1.49e-01  -5.1 1.38e-01  -0.2 1.00e+00 1.19e-02h  1
  54 -3.7178862e+00 5.80e-05 1.11e-01  -6.5 3.89e-02   0.2 1.00e+00 3.60e-01h  1
  55 -3.7029608e+00 1.36e-04 5.94e-02  -4.4 1.02e-01  -0.2 1.00e+00 9.12e-01h  1
  56 -3.6919796e+00 2.92e-05 6.54e-02  -5.3 4.19e-02   0.2 1.00e+00 1.00e+00h  1
  57 -3.6787781e+00 1.32e-04 8.01e-02  -5.9 1.82e-01  -0.3 1.00e+00 3.12e-01h  1
  58 -3.6719583e+00 9.61e-05 7.69e-02  -5.5 5.82e-02   0.1 1.00e+00 3.76e-01h  1
  59 -3.6272520e+00 1.09e-03 1.01e-01  -3.9 2.74e-01  -0.3 6.07e-01 4.90e-01f  1
iter    objective    inf_pr   inf_du lg(mu)  ||d||  lg(rg) alpha_du alpha_pr  ls
  60 -3.6259710e+00 1.07e-03 1.01e-01  -4.8 8.37e-02   0.1 1.00e+00 1.97e-02h  1
  61 -3.5972383e+00 1.13e-03 1.61e-01  -3.5 3.86e-01  -0.4 4.66e-01 1.82e-01f  1
  62 -3.5963850e+00 1.11e-03 1.62e-01  -4.8 6.48e-02   0.0 1.00e+00 1.79e-02h  1
  63 -3.5893504e+00 9.14e-04 2.90e-01  -4.3 9.58e-02  -0.4 1.00e+00 1.80e-01h  1
  64 -3.5680691e+00 1.48e-04 3.73e-02  -4.9 3.24e-02  -0.0 1.00e+00 9.02e-01h  1
  65 -3.5652127e+00 1.22e-04 5.71e-02  -5.6 6.66e-02  -0.5 1.00e+00 1.88e-01h  1
  66 -3.5609283e+00 2.30e-05 1.96e-02  -5.3 2.45e-02  -0.1 1.00e+00 8.42e-01h  1
  67 -3.5606682e+00 2.24e-05 5.87e-02  -5.9 9.56e-02  -0.5 1.00e+00 2.65e-02h  1
  68 -3.5577490e+00 8.49e-05 1.85e-02  -6.0 2.46e-02  -0.1 1.00e+00 9.64e-01h  1
  69 -3.5561410e+00 1.35e-04 6.08e-02  -6.4 1.75e-01  -0.6 1.00e+00 9.71e-02h  1
iter    objective    inf_pr   inf_du lg(mu)  ||d||  lg(rg) alpha_du alpha_pr  ls
  70 -3.5530841e+00 2.06e-04 2.15e-02  -5.4 3.13e-02  -0.2 1.00e+00 1.00e+00h  1
  71 -3.5513060e+00 2.54e-04 1.26e-01  -5.5 3.74e-01  -0.6 1.00e+00 4.23e-02h  1
  72 -3.5494158e+00 2.58e-04 1.21e-01 -11.5 7.66e+00    -  3.44e-03 6.53e-03f  1
  73 -3.5493948e+00 2.58e-04 9.88e-02  -6.4 5.19e-02  -0.2 1.00e+00 2.38e-03h  1
  74 -3.5486058e+00 2.48e-04 4.27e-01  -4.0 1.62e+00    -  5.08e-01 1.49e-02f  1
  75 -3.5482582e+00 2.93e-04 4.37e-01  -4.6 1.04e+00    -  4.19e-01 6.29e-02h  1
  76 -3.5472743e+00 2.82e-04 2.66e-01  -4.4 5.68e-01  -0.7 4.05e-01 1.39e-02h  1
  77 -3.5470074e+00 7.80e-05 2.99e-02  -5.1 4.08e-03    -  1.00e+00 6.39e-01h  1
  78 -3.5462789e+00 1.99e-07 2.48e-04  -6.8 3.47e-03    -  1.00e+00 9.92e-01h  1
  79 -3.5462618e+00 6.31e-11 1.79e-09  -8.8 5.57e-05    -  1.00e+00 1.00e+00h  1

Number of Iterations....: 79

                                   (scaled)                 (unscaled)
Objective...............:   3.5462618061821733e+00   -3.5462618061821733e+00
Dual infeasibility......:   1.7854075932487272e-09    1.7854075932487272e-09
Constraint violation....:   6.3142824302531153e-11    6.3142824302531153e-11
Complementarity.........:   1.5873611671803103e-09   -1.5873611671803103e-09
Overall NLP error.......:   1.7854075932487272e-09    1.7854075932487272e-09


Number of objective function evaluations             = 80
Number of objective gradient evaluations             = 80
Number of equality constraint evaluations            = 80
Number of inequality constraint evaluations          = 80
Number of equality constraint Jacobian evaluations   = 80
Number of inequality constraint Jacobian evaluations = 80
Number of Lagrangian Hessian evaluations             = 79
Total CPU secs in IPOPT (w/o function evaluations)   =      0.230
Total CPU secs in NLP function evaluations           =      0.007

EXIT: Optimal Solution Found.
 Root node solved locally optimal.
   Node  Act. Lev.  Objective  IInf  Best Int.   Best Bound   Gap  (0 secs)
      0     2   0      -3.5463  12            -      -3.5463         -
*     1     0   1      -3.3077   0      -3.3077      -3.3077  0.000000
 Integer solution
 Statistics:
    Iterations    :               144
    NLP Seconds   :          0.367000
    B&B nodes     :                 1
    MIP solution  :         -3.307737 found in node 1
    Best possible :         -3.307737
    Absolute gap  :          0.000000     optca :  0.000001
    Relative gap  :          0.000000     optcr :  0.000010
    Model Status  :                 8
    Solver Status :                 1

 Non convex model!
    # jumps in best bound       :                 1
    Maximum jump in best bound  :          0.238525 in node 1
    # jumps to better objective :                 1
    Maximum jump in objective   :          0.238525 in node 1

 NLP Solver Statistics
    Total Number of NLP solves  :          3
    Total Number of NLP failures:          0
    Details:          ipopt
      # execs             3
      # failures          0
 Terminating.
--- Restarting execution
--- Doptimal_MINLP.gms(185) 2 Mb
--- Reading solution for model D_opt
--- Executing after solve: elapsed 0:00:00.650
--- Doptimal_MINLP.gms(190) 3 Mb
*** Status: Normal completion
--- Job Doptimal_MINLP.gms Stop 04/02/19 17:55:48 elapsed 0:00:00.658
